p td 120 119
0 1
0 3
0 4
0 9
0 15
0 18
0 37
0 39
0 53
0 72
0 93
0 95
0 117
0 119
1 2
1 14
1 38
1 82
1 88
2 7
2 13
2 36
2 75
2 92
2 109
3 5
3 6
3 21
3 103
4 12
4 77
5 10
5 17
5 47
5 48
5 49
5 50
5 52
5 86
5 96
5 108
6 30
6 116
7 8
7 20
7 24
7 104
9 11
9 23
9 29
9 34
9 41
9 73
9 78
10 31
12 22
12 33
13 19
13 26
13 27
13 35
13 40
13 46
13 58
13 85
13 98
13 101
13 107
13 110
13 113
15 16
15 32
15 71
15 118
17 55
17 63
18 83
19 28
19 81
21 42
22 68
23 25
23 45
23 64
25 69
25 70
28 59
31 65
33 56
36 61
40 43
43 44
44 60
44 99
45 51
45 57
45 66
45 76
45 89
46 91
46 114
48 79
49 90
51 54
51 100
55 62
58 84
58 111
62 74
62 97
62 106
64 67
73 80
73 87
79 102
81 112
82 94
101 105
105 115
